--- Job feedOptimizer.gms Start 07/10/20 15:21:49 31.1.0 r55b6ce3 WEX-WEI x86 64bit/MS Windows
--- Applying:
    E:\31.1\gmsprmNT.txt
--- GAMS Parameters defined
    Input C:\Users\hasee\Documents\GitHub\GAMS-MIRO\feedopt\feedOptimizer.gms
    ScrDir C:\Users\hasee\Documents\GitHub\GAMS-MIRO\feedopt\225a\
    SysDir E:\31.1\
    CurDir C:\Users\hasee\Documents\GitHub\GAMS-MIRO\feedopt\
    LogOption 3
    Trace C:\Users\hasee\Documents\GitHub\GAMS-MIRO\feedopt\_sys_trace_feedoptimizer.trc
    InputDir1 C:\Users\hasee\Documents\GitHub\GAMS-MIRO\feedopt\
    TraceOpt 3
    ExecMode 0
    LstTitleLeftAligned 1
    IDCGDXInput _miro_gdxin_.gdx
    IDCGDXOutput _miro_gdxout_.gdx
GAMS 31.1.0   Copyright (C) 1987-2020 GAMS Development. All rights reserved
Licensee: Michael Ferris Research Group - Eval           G191008/0001AS-GEN
          UW-Madison Computer Sciences Dept.                         DCE244
          E:\31.1\gamslice.txt
          Evaluation license: Not for commercial or production use
--- Starting compilation
--- feedOptimizer.gms(24) 2 Mb
--- GDXin=C:\Users\hasee\Documents\GitHub\GAMS-MIRO\feedopt\_miro_gdxin_.gdx
--- feedOptimizer.gms(33) 3 Mb
--- GDXin=C:\Users\hasee\Documents\GitHub\GAMS-MIRO\feedopt\_miro_gdxin_.gdx
--- feedOptimizer.gms(235) 3 Mb
--- Starting execution: elapsed 0:00:00.008
--- feedOptimizer.gms(195) 4 Mb
--- Generating MIP model feedOptimizer
--- feedOptimizer.gms(197) 7 Mb
---   10,373 rows  5,425 columns  34,249 non-zeroes
---   5,280 discrete-columns
--- Executing CPLEX: elapsed 0:00:00.081

IBM ILOG CPLEX   31.1.0 r55b6ce3 Released May 01, 2020 WEI x86 64bit/MS Window
--- GAMS/Cplex licensed for continuous and discrete problems.
Cplex 12.10.0.0

Reading data...
Starting Cplex...
Space for names approximately 0.44 Mb
Use option 'names no' to turn use of names off
Version identifier: 12.10.0.0 | 2019-11-26 | 843d4de2ae
CPXPARAM_Advance                                 0
CPXPARAM_Threads                                 1
CPXPARAM_Parallel                                1
CPXPARAM_MIP_Display                             4
CPXPARAM_Simplex_Limits_Iterations               2000000000
CPXPARAM_TimeLimit                               30
CPXPARAM_Tune_TimeLimit                          6
CPXPARAM_MIP_Tolerances_AbsMIPGap                0
CPXPARAM_MIP_Tolerances_MIPGap                   0.10000000000000001
CPXPARAM_WorkDir                                 "C:\Users\hasee\Documents\GitHub\GAMS-MIRO\feedopt\225a\"
Found incumbent of value 0.000000 after 0.00 sec. (0.20 ticks)
Tried aggregator 1 time.
MIP Presolve eliminated 5353 rows and 1885 columns.
MIP Presolve modified 1060 coefficients.
Reduced MIP has 5020 rows, 3540 columns, and 19932 nonzeros.
Reduced MIP has 3408 binaries, 0 generals, 0 SOSs, and 0 indicators.
Presolve time = 0.03 sec. (15.92 ticks)
Probing time = 0.00 sec. (1.56 ticks)
Tried aggregator 1 time.
Detecting symmetries...
MIP Presolve eliminated 75 rows and 36 columns.
MIP Presolve modified 960 coefficients.
Reduced MIP has 4945 rows, 3504 columns, and 19653 nonzeros.
Reduced MIP has 3372 binaries, 0 generals, 0 SOSs, and 0 indicators.
Presolve time = 0.03 sec. (15.77 ticks)
Probing time = 0.00 sec. (1.55 ticks)
Clique table members: 72.
MIP emphasis: balance optimality and feasibility.
MIP search method: dynamic search.
Parallel mode: none, using 1 thread.
Tried aggregator 1 time.
LP Presolve eliminated 96 rows and 108 columns.
Reduced LP has 4849 rows, 3396 columns, and 19272 nonzeros.
Presolve time = 0.00 sec. (3.21 ticks)

Iteration log . . .
Iteration:     1   Dual objective     =         82621.873980
Iteration:   164   Dual objective     =         47551.612376
Perturbation started.
Iteration:   303   Dual objective     =         47551.612376
Iteration:   460   Dual objective     =         47551.612301
Iteration:   590   Dual objective     =         47551.612250
Iteration:   736   Dual objective     =         47551.612183
Iteration:   934   Dual objective     =         47551.612089
Iteration:  1076   Dual objective     =         47551.612022
Iteration:  1279   Dual objective     =         47551.611933
Iteration:  1451   Dual objective     =         47551.611856
Iteration:  1615   Dual objective     =         47551.611777
Iteration:  1812   Dual objective     =         47551.611691
Iteration:  1953   Dual objective     =         47551.611636
Iteration:  2137   Dual objective     =         47551.611563
Iteration:  2299   Dual objective     =         47551.611489
Iteration:  2474   Dual objective     =         47551.611423
Iteration:  2697   Dual objective     =         47551.611400
Iteration:  2921   Dual objective     =         47551.611390
Removing perturbation.
Initializing dual steep norms . . .

Iteration log . . .
Iteration:     1   Dual objective     =         47551.612376
Root relaxation solution time = 0.23 sec. (205.12 ticks)

        Nodes                                         Cuts/
   Node  Left     Objective  IInf  Best Integer    Best Bound    ItCnt     Gap

*     0+    0                            0.0000    83392.0595              --- 
Found incumbent of value 0.000000 after 0.31 sec. (247.39 ticks)
      0     0    47551.6124   578        0.0000    47551.6124     3002     --- 
      0     0    47551.6124   578        0.0000      Cuts: 40     3091     --- 
      0     0    47551.6124   578        0.0000     Cuts: 383     3536     --- 
*     0+    0                        36372.7927    47551.6124            30.73%
Found incumbent of value 36372.792717 after 0.55 sec. (417.42 ticks)
      0     0    47551.6124   578    36372.7927      Cuts: 96     3635   30.73%
      0     0    47551.6124   578    36372.7927     Cuts: 239     3884   30.73%
      0     0    47551.6124   578    36372.7927     Cuts: 145     4048   30.73%
*     0+    0                        41773.8523    47551.6124            13.83%
Found incumbent of value 41773.852314 after 0.86 sec. (682.44 ticks)
*     0+    0                        47551.6124    47551.6124             0.00%
Found incumbent of value 47551.612376 after 1.00 sec. (799.47 ticks)
      0     0        cutoff          47551.6124    47551.6124     4048    0.00%
      0     0        cutoff          47551.6124    47551.6124     4048    0.00%
Elapsed time = 1.00 sec. (801.19 ticks, tree = 0.01 MB, solutions = 3)

Flow cuts applied:  42
Mixed integer rounding cuts applied:  70
Gomory fractional cuts applied:  3

Root node processing (before b&c):
  Real time             =    1.00 sec. (801.56 ticks)
Sequential b&c:
  Real time             =    0.00 sec. (0.00 ticks)
                          ------------
Total (root+branch&cut) =    1.00 sec. (801.56 ticks)
MIP status(101): integer optimal solution
Cplex Time: 1.00sec (det. 801.58 ticks)
Fixing integer variables, and solving final LP...
Version identifier: 12.10.0.0 | 2019-11-26 | 843d4de2ae
CPXPARAM_Advance                                 2
CPXPARAM_Threads                                 1
CPXPARAM_Parallel                                1
CPXPARAM_MIP_Display                             4
CPXPARAM_Simplex_Limits_Iterations               2000000000
CPXPARAM_TimeLimit                               30
CPXPARAM_Tune_TimeLimit                          6
CPXPARAM_MIP_Tolerances_AbsMIPGap                0
CPXPARAM_MIP_Tolerances_MIPGap                   0.10000000000000001
CPXPARAM_WorkDir                                 "C:\Users\hasee\Documents\GitHub\GAMS-MIRO\feedopt\225a\"
Tried aggregator 1 time.
LP Presolve eliminated 10373 rows and 5425 columns.
All rows and columns eliminated.
Presolve time = 0.02 sec. (4.48 ticks)
Fixed MIP status(1): optimal
Cplex Time: 0.02sec (det. 8.29 ticks)

Proven optimal solution.

MIP Solution:        47551.612376    (4048 iterations, 0 nodes)
Final Solve:         47551.612376    (0 iterations)

Best possible:       47551.612376
Absolute gap:            0.000000
Relative gap:            0.000000

--- Restarting execution
--- feedOptimizer.gms(197) 3 Mb
--- Reading solution for model feedOptimizer
--- feedOptimizer.gms(233) 4 Mb
--- GDX File C:\Users\hasee\Documents\GitHub\GAMS-MIRO\feedopt\_miro_gdxout_.gdx
*** Status: Normal completion
--- Job feedOptimizer.gms Stop 07/10/20 15:21:50 elapsed 0:00:01.343
